Route #1: 1 44 5 29 6 8 40 51 21 24 1
Route #2: 1 31 53 17 33 7 11 16 36 30 19 1
Route #3: 1 12 4 23 32 9 20 13 1
Route #4: 1 50 37 2 18 27 46 39 34 14 1
Route #5: 1 35 26 48 42 47 43 52 25 3 1
Route #6: 1 22 10 45 54 1
Route #7: 1 41 49 38 28 15 1
cost 1317.0224586635504
